(set-option :produce-models true); benchmark generated from python API
(set-info :status unknown)
(declare-fun l_1_0_9 () Real)
(declare-fun l_1_0_8 () Real)
(declare-fun l_1_0_7 () Real)
(declare-fun l_1_0_6 () Real)
(declare-fun l_1_0_5 () Real)
(declare-fun l_1_0_4 () Real)
(declare-fun l_1_0_3 () Real)
(declare-fun l_1_0_2 () Real)
(declare-fun l_1_0_1 () Real)
(declare-fun _a_0_ () Real)
(declare-fun l_1_0_11 () Real)
(declare-fun l_1_0_10 () Real)
(declare-fun _a_1_ () Real)
(declare-fun l_1_0_12 () Real)
(declare-fun _a_2_ () Real)
(declare-fun l_1_0_14 () Real)
(declare-fun l_1_0_13 () Real)
(declare-fun _a_3_ () Real)
(declare-fun _a_4_ () Real)
(declare-fun _a_5_ () Real)
(declare-fun l_1_1_8 () Real)
(declare-fun l_1_1_7 () Real)
(declare-fun l_1_1_6 () Real)
(declare-fun l_1_1_5 () Real)
(declare-fun l_1_1_15 () Real)
(declare-fun l_1_1_14 () Real)
(declare-fun l_1_1_12 () Real)
(declare-fun l_1_1_11 () Real)
(declare-fun l_1_1_10 () Real)
(declare-fun l_1_1_1 () Real)
(declare-fun l_1_1_9 () Real)
(declare-fun l_1_1_4 () Real)
(declare-fun l_1_1_3 () Real)
(declare-fun l_1_1_2 () Real)
(declare-fun l_1_1_13 () Real)
(declare-fun l_1_1_18 () Real)
(declare-fun l_1_1_17 () Real)
(declare-fun l_1_1_16 () Real)
(declare-fun l_1_1_20 () Real)
(declare-fun l_1_1_19 () Real)
(declare-fun l_1_2_9 () Real)
(declare-fun l_1_2_7 () Real)
(declare-fun l_1_2_6 () Real)
(declare-fun l_1_2_5 () Real)
(declare-fun l_1_2_4 () Real)
(declare-fun l_1_2_3 () Real)
(declare-fun l_1_2_15 () Real)
(declare-fun l_1_2_14 () Real)
(declare-fun l_1_2_10 () Real)
(declare-fun l_1_2_1 () Real)
(declare-fun l_1_2_8 () Real)
(declare-fun l_1_2_2 () Real)
(declare-fun l_1_2_13 () Real)
(declare-fun l_1_2_12 () Real)
(declare-fun l_1_2_11 () Real)
(declare-fun l_1_2_17 () Real)
(declare-fun l_1_2_16 () Real)
(declare-fun l_1_2_20 () Real)
(declare-fun l_1_2_19 () Real)
(declare-fun l_1_2_18 () Real)
(assert
 (let ((?x46 (* l_1_0_9 l_1_0_9)))
 (let ((?x1552 (* 4.0 l_1_0_7)))
 (let ((?x53 (* 2.0 l_1_0_3)))
 (let ((?x52 (- (- (- (- _a_0_ (* 2.0 l_1_0_1)) (* 2.0 l_1_0_2)) ?x53) l_1_0_4)))
 (= (- (- (- (- (- ?x52 l_1_0_5) l_1_0_6) ?x1552) l_1_0_8) ?x46) 0.0))))))
(assert
 (let ((?x1552 (* 4.0 l_1_0_7)))
 (let ((?x1424 (* l_1_0_11 l_1_0_11)))
 (let ((?x1427 (+ (- (- (+ _a_1_ l_1_0_1) (* l_1_0_10 l_1_0_10)) ?x1424) l_1_0_2)))
 (= (+ (+ ?x1427 l_1_0_3) ?x1552) 0.0)))))
(assert
 (= (- _a_2_ (* (* 2.0 l_1_0_12) l_1_0_9)) 0.0))
(assert
 (let ((?x1552 (* 4.0 l_1_0_7)))
 (let ((?x1386 (* l_1_0_14 l_1_0_14)))
 (let ((?x1385 (* l_1_0_13 l_1_0_13)))
 (let ((?x1387 (+ (- (- (- (+ _a_3_ l_1_0_1) (* l_1_0_12 l_1_0_12)) ?x1385) ?x1386) l_1_0_2)))
 (= (+ (+ ?x1387 l_1_0_3) ?x1552) 0.0))))))
(assert
 (= (- _a_4_ (* (* 2.0 l_1_0_10) l_1_0_9)) 0.0))
(assert
 (let ((?x1218 (- (- _a_5_ (* (* 2.0 l_1_0_10) l_1_0_12)) (* (* 2.0 l_1_0_11) l_1_0_13))))
 (= ?x1218 0.0)))
(assert
 (= (- l_1_0_7) 0.0))
(assert
 (= (* (- 2.0) l_1_0_7) 0.0))
(assert
 (= (- l_1_0_7) 0.0))
(assert
 (>= l_1_0_1 0.0))
(assert
 (>= l_1_0_2 0.0))
(assert
 (>= l_1_0_3 0.0))
(assert
 (>= l_1_0_4 0.0))
(assert
 (>= l_1_0_5 0.0))
(assert
 (>= l_1_0_6 0.0))
(assert
 (>= l_1_0_7 0.0))
(assert
 (>= l_1_0_8 0.0))
(assert
 (>= l_1_0_9 0.0))
(assert
 (>= l_1_0_11 0.0))
(assert
 (>= l_1_0_14 0.0))
(assert
 (let ((?x1116 (* 9.0 l_1_1_7)))
 (let ((?x1109 (* l_1_1_15 l_1_1_15)))
 (let ((?x1106 (* 3.0 l_1_1_12)))
 (let ((?x1102 (* 3.0 l_1_1_1)))
 (let ((?x1099 (* _a_0_ l_1_1_9)))
 (let ((?x1191 (* _a_0_ l_1_1_4)))
 (let ((?x1188 (* _a_0_ l_1_1_3)))
 (let ((?x1187 (+ (* (* 3.0 _a_0_) l_1_1_13) (* (* 3.0 _a_0_) l_1_1_2))))
 (let ((?x1105 (- (- (+ (- (- (- ?x1187 ?x1188) ?x1191) ?x1099) ?x1102) l_1_1_10) l_1_1_11)))
 (let ((?x1114 (- (- (- (- (+ ?x1105 ?x1106) l_1_1_14) ?x1109) l_1_1_5) (* (* l_1_1_6 _a_0_) _a_0_))))
 (= (+ (+ (- ?x1114 ?x1116) (* 3.0 l_1_1_8)) (/ 121.0 100.0)) 0.0))))))))))))
(assert
 (let ((?x911 (* _a_2_ l_1_1_9)))
 (let ((?x930 (* _a_2_ l_1_1_4)))
 (let ((?x928 (* _a_2_ l_1_1_3)))
 (let ((?x925 (+ (* (* (* (- 2.0) _a_0_) _a_2_) l_1_1_6) (* (* 3.0 _a_2_) l_1_1_13))))
 (let ((?x37 (- (- (- (+ ?x925 (* (* 3.0 _a_2_) l_1_1_2)) ?x928) ?x930) ?x911)))
 (= (+ (- ?x37 (* (* 2.0 l_1_1_15) l_1_1_18)) 1.0) 0.0)))))))
(assert
 (let ((?x828 (* 6.0 l_1_1_7)))
 (let ((?x30 (* l_1_1_17 l_1_1_17)))
 (let ((?x852 (* l_1_1_16 l_1_1_16)))
 (let ((?x24 (* _a_1_ l_1_1_9)))
 (let ((?x425 (- (- (- (* (- _a_1_) l_1_1_3) (* _a_1_ l_1_1_4)) ?x24) l_1_1_1)))
 (let ((?x605 (- (- (- ?x425 l_1_1_12) (* l_1_1_13 (- _a_0_ (* 3.0 _a_1_)))) ?x852)))
 (let ((?x827 (- (- (- ?x605 ?x30) (* l_1_1_2 (- _a_0_ (* 3.0 _a_1_)))) (* l_1_1_6 (+ (* (* 2.0 _a_0_) _a_1_) (* _a_4_ _a_4_))))))
 (= (- (- (+ ?x827 ?x828) l_1_1_8) (/ 1.0 5.0)) 0.0)))))))))
(assert
 (let ((?x828 (* 6.0 l_1_1_7)))
 (let ((?x405 (* l_1_1_20 l_1_1_20)))
 (let ((?x402 (* l_1_1_19 l_1_1_19)))
 (let ((?x400 (* l_1_1_18 l_1_1_18)))
 (let ((?x448 (* _a_3_ l_1_1_9)))
 (let ((?x450 (- (- (- (* (- _a_3_) l_1_1_3) (* _a_3_ l_1_1_4)) ?x448) l_1_1_1)))
 (let ((?x401 (- (- (- ?x450 l_1_1_12) (* l_1_1_13 (- _a_0_ (* 3.0 _a_3_)))) ?x400)))
 (let ((?x406 (- (- (- ?x401 ?x402) (* l_1_1_2 (- _a_0_ (* 3.0 _a_3_)))) ?x405)))
 (let ((?x346 (- ?x406 (* l_1_1_6 (+ (* (* 2.0 _a_0_) _a_3_) (* _a_2_ _a_2_))))))
 (= (- (+ ?x346 ?x828) l_1_1_8) 0.0)))))))))))
(assert
 (let ((?x225 (* _a_4_ l_1_1_9)))
 (let ((?x223 (* _a_4_ l_1_1_4)))
 (let ((?x221 (* _a_4_ l_1_1_3)))
 (let ((?x218 (+ (* (* (* (- 2.0) _a_0_) _a_4_) l_1_1_6) (* (* 3.0 _a_4_) l_1_1_13))))
 (let ((?x129 (- (- (- (+ ?x218 (* (* 3.0 _a_4_) l_1_1_2)) ?x221) ?x223) ?x225)))
 (= (- ?x129 (* (* 2.0 l_1_1_15) l_1_1_16)) 0.0)))))))
(assert
 (let ((?x1288 (+ (* (* 2.0 _a_0_) _a_5_) (* (* 2.0 _a_2_) _a_4_))))
 (let ((?x104 (* _a_5_ l_1_1_9)))
 (let ((?x102 (* _a_5_ l_1_1_4)))
 (let ((?x99 (* _a_5_ l_1_1_3)))
 (let ((?x97 (+ (* (* 3.0 _a_5_) l_1_1_13) (* (* 3.0 _a_5_) l_1_1_2))))
 (let ((?x108 (- (- (- (- ?x97 ?x99) ?x102) ?x104) (* (* 2.0 l_1_1_16) l_1_1_18))))
 (= (- (- ?x108 (* (* 2.0 l_1_1_17) l_1_1_19)) (* l_1_1_6 ?x1288)) 0.0))))))))
(assert
 (let ((?x203 (- (- (* (- _a_1_) l_1_1_13) (* _a_1_ l_1_1_2)) (* (* l_1_1_6 _a_1_) _a_1_))))
 (= (- ?x203 l_1_1_7) 0.0)))
(assert
 (let ((?x646 (+ (* (* 2.0 _a_1_) _a_2_) (* (* 2.0 _a_4_) _a_5_))))
 (let ((?x647 (- (- (* (- _a_2_) l_1_1_13) (* _a_2_ l_1_1_2)) (* l_1_1_6 ?x646))))
 (= ?x647 0.0))))
(assert
 (let ((?x747 (* 2.0 l_1_1_7)))
 (let ((?x729 (- (* (- l_1_1_13) (+ _a_1_ _a_3_)) (* l_1_1_2 (+ _a_1_ _a_3_)))))
 (let ((?x741 (- ?x729 (* l_1_1_6 (+ (* (* 2.0 _a_1_) _a_3_) (* _a_5_ _a_5_))))))
 (= (- ?x741 ?x747) 0.0)))))
(assert
 (let ((?x150 (* _a_4_ l_1_1_2)))
 (let ((?x198 (* _a_4_ l_1_1_13)))
 (= (- (- (* (* (* (- 2.0) _a_1_) _a_4_) l_1_1_6) ?x198) ?x150) 0.0))))
(assert
 (let ((?x1291 (* _a_5_ l_1_1_2)))
 (let ((?x1289 (* _a_5_ l_1_1_13)))
 (= (- (- (* (* (* (- 2.0) _a_1_) _a_5_) l_1_1_6) ?x1289) ?x1291) 0.0))))
(assert
 (let ((?x28 (* _a_2_ l_1_1_2)))
 (let ((?x31 (* _a_2_ l_1_1_13)))
 (= (- (- (* (* (* (- 2.0) _a_2_) _a_3_) l_1_1_6) ?x31) ?x28) 0.0))))
(assert
 (let ((?x172 (- (- (* (- _a_3_) l_1_1_13) (* _a_3_ l_1_1_2)) (* (* l_1_1_6 _a_3_) _a_3_))))
 (= (- ?x172 l_1_1_7) 0.0)))
(assert
 (let ((?x693 (+ (* (* 2.0 _a_2_) _a_5_) (* (* 2.0 _a_3_) _a_4_))))
 (let ((?x700 (- (- (* (- _a_4_) l_1_1_13) (* _a_4_ l_1_1_2)) (* l_1_1_6 ?x693))))
 (= ?x700 0.0))))
(assert
 (let ((?x1291 (* _a_5_ l_1_1_2)))
 (let ((?x1289 (* _a_5_ l_1_1_13)))
 (= (- (- (* (* (* (- 2.0) _a_3_) _a_5_) l_1_1_6) ?x1289) ?x1291) 0.0))))
(assert
 (>= l_1_1_1 0.0))
(assert
 (>= l_1_1_2 0.0))
(assert
 (>= l_1_1_3 0.0))
(assert
 (>= l_1_1_4 0.0))
(assert
 (>= l_1_1_5 0.0))
(assert
 (>= l_1_1_6 0.0))
(assert
 (>= l_1_1_7 0.0))
(assert
 (>= l_1_1_8 0.0))
(assert
 (>= l_1_1_9 0.0))
(assert
 (>= l_1_1_10 0.0))
(assert
 (>= l_1_1_11 0.0))
(assert
 (>= l_1_1_12 0.0))
(assert
 (>= l_1_1_13 0.0))
(assert
 (>= l_1_1_14 0.0))
(assert
 (>= l_1_1_15 0.0))
(assert
 (>= l_1_1_17 0.0))
(assert
 (>= l_1_1_20 0.0))
(assert
 (let ((?x374 (* 3.0 l_1_2_9)))
 (let ((?x388 (* 3.0 l_1_2_5)))
 (let ((?x230 (* l_1_2_15 l_1_2_15)))
 (let ((?x208 (* 3.0 l_1_2_10)))
 (let ((?x211 (* 9.0 l_1_2_1)))
 (let ((?x556 (* 1.0 _a_5_)))
 (let ((?x1517 (* _a_0_ l_1_2_8)))
 (let ((?x1516 (* _a_0_ l_1_2_2)))
 (let ((?x1512 (- (- (* (- _a_0_) l_1_2_11) (* (* 3.0 _a_0_) l_1_2_12)) (* (* 3.0 _a_0_) l_1_2_13))))
 (let ((?x1538 (+ (+ (+ (- (- ?x1512 ?x1516) ?x1517) _a_0_) (* 1.0 _a_1_)) (* 1.0 _a_2_))))
 (let ((?x212 (- (- (- (+ ?x1538 (* 1.0 _a_3_)) (* 1.0 _a_4_)) ?x556) ?x211)))
 (let ((?x642 (- (- (- (- ?x212 ?x208) l_1_2_14) ?x230) (* (* l_1_2_3 _a_0_) _a_0_))))
 (= (- (- (- (- (- ?x642 l_1_2_4) ?x388) l_1_2_6) l_1_2_7) ?x374) 0.0))))))))))))))
(assert
 (let ((?x484 (- (+ (+ (* _a_1_ l_1_2_12) (* _a_1_ l_1_2_13)) _a_1_) l_1_2_1)))
 (= (- ?x484 (* (* l_1_2_3 _a_1_) _a_1_)) 0.0)))
(assert
 (let ((?x646 (+ (* (* 2.0 _a_1_) _a_2_) (* (* 2.0 _a_4_) _a_5_))))
 (let ((?x1541 (* _a_2_ l_1_2_13)))
 (let ((?x236 (- (+ (+ (* 2.0 _a_1_) (* _a_2_ l_1_2_12)) ?x1541) (* l_1_2_3 ?x646))))
 (= ?x236 0.0)))))
(assert
 (let ((?x1535 (* l_1_2_17 l_1_2_17)))
 (let ((?x1063 (* l_1_2_16 l_1_2_16)))
 (let ((?x381 (* 6.0 l_1_2_1)))
 (let ((?x556 (* 1.0 _a_5_)))
 (let ((?x621 (* 2.0 _a_1_)))
 (let ((?x1411 (* _a_1_ l_1_2_8)))
 (let ((?x773 (- (- (- (* (- _a_1_) l_1_2_11) (* _a_1_ l_1_2_2)) ?x1411) ?x621)))
 (let ((?x1409 (- (+ (+ (+ (+ ?x773 _a_4_) ?x556) ?x381) l_1_2_10) (* l_1_2_12 (+ (- _a_0_) (* 3.0 _a_1_))))))
 (let ((?x1536 (- (- (- ?x1409 (* l_1_2_13 (+ (- _a_0_) (* 3.0 _a_1_)))) ?x1063) ?x1535)))
 (let ((?x1342 (- ?x1536 (* l_1_2_3 (+ (* (* 2.0 _a_0_) _a_1_) (* _a_4_ _a_4_))))))
 (= (+ (+ ?x1342 l_1_2_5) l_1_2_9) 0.0))))))))))))
(assert
 (let ((?x661 (* l_1_2_20 l_1_2_20)))
 (let ((?x1008 (* l_1_2_19 l_1_2_19)))
 (let ((?x1013 (* l_1_2_18 l_1_2_18)))
 (let ((?x381 (* 6.0 l_1_2_1)))
 (let ((?x556 (* 1.0 _a_5_)))
 (let ((?x692 (* 2.0 _a_3_)))
 (let ((?x802 (* _a_3_ l_1_2_8)))
 (let ((?x800 (* _a_3_ l_1_2_2)))
 (let ((?x470 (+ (- (- (- (+ _a_1_ _a_2_) (* _a_3_ l_1_2_11)) ?x800) ?x802) ?x692)))
 (let ((?x494 (- (+ (+ (- ?x470 ?x556) ?x381) l_1_2_10) (* l_1_2_12 (+ (- _a_0_) (* 3.0 _a_3_))))))
 (let ((?x1009 (- (- (- ?x494 (* l_1_2_13 (+ (- _a_0_) (* 3.0 _a_3_)))) ?x1013) ?x1008)))
 (let ((?x862 (- (- ?x1009 ?x661) (* l_1_2_3 (+ (* (* 2.0 _a_0_) _a_3_) (* _a_2_ _a_2_))))))
 (= (+ (+ ?x862 l_1_2_5) l_1_2_9) 0.0))))))))))))))
(assert
 (let ((?x556 (* 1.0 _a_5_)))
 (let ((?x379 (* _a_2_ l_1_2_8)))
 (let ((?x145 (* _a_2_ l_1_2_2)))
 (let ((?x1493 (* _a_2_ l_1_2_11)))
 (let ((?x1489 (- (- (* (* (* (- 2.0) _a_0_) _a_2_) l_1_2_3) (* 2.0 _a_1_)) ?x1493)))
 (let ((?x144 (- (- ?x1489 (* (* 3.0 _a_2_) l_1_2_12)) (* (* 3.0 _a_2_) l_1_2_13))))
 (let ((?x1511 (- (+ (+ (- (- ?x144 ?x145) ?x379) _a_4_) ?x556) (* (* 2.0 l_1_2_15) l_1_2_18))))
 (= ?x1511 0.0)))))))))
(assert
 (let ((?x1288 (+ (* (* 2.0 _a_0_) _a_5_) (* (* 2.0 _a_2_) _a_4_))))
 (let ((?x1469 (* 2.0 _a_5_)))
 (let ((?x1014 (* _a_5_ l_1_2_8)))
 (let ((?x690 (* _a_5_ l_1_2_2)))
 (let ((?x1514 (- (- (+ (* 2.0 _a_2_) (* 4.0 _a_3_)) (* _a_5_ l_1_2_11)) (* (* 3.0 _a_5_) l_1_2_12))))
 (let ((?x1465 (- (- (- (- ?x1514 (* (* 3.0 _a_5_) l_1_2_13)) ?x690) ?x1014) ?x1469)))
 (let ((?x392 (- (- ?x1465 (* (* 2.0 l_1_2_16) l_1_2_18)) (* (* 2.0 l_1_2_17) l_1_2_19))))
 (= (- ?x392 (* l_1_2_3 ?x1288)) 0.0)))))))))
(assert
 (let ((?x299 (- (- (+ (* 4.0 _a_3_) _a_5_) (* 2.0 l_1_2_1)) (* l_1_2_12 (- (- _a_1_) _a_3_)))))
 (let ((?x742 (- (- ?x299 (* l_1_2_13 (- (- _a_1_) _a_3_))) (* l_1_2_3 (+ (* (* 2.0 _a_1_) _a_3_) (* _a_5_ _a_5_))))))
 (= ?x742 0.0))))
(assert
 (let ((?x1358 (* _a_5_ l_1_2_13)))
 (let ((?x1173 (* _a_5_ l_1_2_12)))
 (let ((?x593 (+ (+ (* (* (* (- 2.0) _a_3_) _a_5_) l_1_2_3) (* 4.0 _a_3_)) ?x1173)))
 (= (+ ?x593 ?x1358) 0.0)))))
(assert
 (let ((?x501 (- (+ (+ (* _a_3_ l_1_2_12) (* _a_3_ l_1_2_13)) _a_3_) l_1_2_1)))
 (= (- ?x501 (* (* l_1_2_3 _a_3_) _a_3_)) 0.0)))
(assert
 (let ((?x1469 (* 2.0 _a_5_)))
 (let ((?x1358 (* _a_5_ l_1_2_13)))
 (let ((?x1173 (* _a_5_ l_1_2_12)))
 (let ((?x276 (+ (+ (+ (* (* (* (- 2.0) _a_1_) _a_5_) l_1_2_3) ?x1173) ?x1358) ?x1469)))
 (= ?x276 0.0))))))
(assert
 (let ((?x693 (+ (* (* 2.0 _a_2_) _a_5_) (* (* 2.0 _a_3_) _a_4_))))
 (let ((?x1469 (* 2.0 _a_5_)))
 (let ((?x149 (- (+ (+ (* _a_4_ l_1_2_12) (* _a_4_ l_1_2_13)) ?x1469) (* l_1_2_3 ?x693))))
 (= ?x149 0.0)))))
(assert
 (let ((?x1541 (* _a_2_ l_1_2_13)))
 (let ((?x1539 (* _a_2_ l_1_2_12)))
 (let ((?x1567 (+ (+ (+ (* (* (* (- 2.0) _a_2_) _a_3_) l_1_2_3) ?x1539) ?x1541) _a_5_)))
 (= ?x1567 0.0)))))
(assert
 (let ((?x1584 (* _a_4_ l_1_2_8)))
 (let ((?x1582 (* _a_4_ l_1_2_2)))
 (let ((?x1576 (* _a_4_ l_1_2_11)))
 (let ((?x1579 (- (- (* (* (* (- 2.0) _a_0_) _a_4_) l_1_2_3) ?x1576) (* (* 3.0 _a_4_) l_1_2_12))))
 (let ((?x1587 (- (- (- (- ?x1579 (* (* 3.0 _a_4_) l_1_2_13)) ?x1582) ?x1584) (* (* 2.0 l_1_2_15) l_1_2_16))))
 (= ?x1587 0.0)))))))
(assert
 (let ((?x272 (* _a_4_ l_1_2_13)))
 (let ((?x271 (* _a_4_ l_1_2_12)))
 (= (+ (+ (* (* (* (- 2.0) _a_1_) _a_4_) l_1_2_3) ?x271) ?x272) 0.0))))
(assert
 (>= l_1_2_1 0.0))
(assert
 (>= l_1_2_2 0.0))
(assert
 (>= l_1_2_3 0.0))
(assert
 (>= l_1_2_4 0.0))
(assert
 (>= l_1_2_5 0.0))
(assert
 (>= l_1_2_6 0.0))
(assert
 (>= l_1_2_7 0.0))
(assert
 (>= l_1_2_8 0.0))
(assert
 (>= l_1_2_9 0.0))
(assert
 (>= l_1_2_10 0.0))
(assert
 (>= l_1_2_11 0.0))
(assert
 (>= l_1_2_12 0.0))
(assert
 (>= l_1_2_13 0.0))
(assert
 (>= l_1_2_14 0.0))
(assert
 (>= l_1_2_15 0.0))
(assert
 (>= l_1_2_17 0.0))
(assert
 (>= l_1_2_20 0.0))
(check-sat)
(get-model)